100
32
3
1
1
1
10
2
1
11
1
1
7
16
11
4
2
7
4
5
4
9
17
10
9
27
14
8
13
9
8
20
1
4
4
2
3
1
1
17
2
1
1
19
1
8
1
2
2
4
1
4
1
17
25
1
2
1
2
18
5
3
3
7
2
17
2
17
4
17
19
1
4
3
5
1
1
1
3
5
10
1
1
16
1
4
5
4
4
3
3
3
3
2
2
1
1
18
7
2
5
1